(set-logic QF_UF)
(declare-fun A0 () Bool)
(declare-fun A1 () Bool)
(declare-fun A2 () Bool)
(declare-fun A3 () Bool)
(declare-fun A4 () Bool)
(declare-fun A5 () Bool)
(declare-fun A6 () Bool)
(declare-fun A7 () Bool)
(declare-fun A9 () Bool)
(declare-fun A10 () Bool)
(declare-fun A11 () Bool)
(declare-fun A13 () Bool)
(declare-fun A14 () Bool)
(declare-fun A15 () Bool)
(declare-fun A16 () Bool)
(declare-fun A17 () Bool)
(declare-fun A18 () Bool)
(declare-fun A19 () Bool)
(declare-fun A20 () Bool)
(declare-fun A21 () Bool)
(declare-fun A22 () Bool)
(declare-fun A23 () Bool)
(declare-fun A24 () Bool)
(assert (let ((.def_0 (not A11))) (let ((.def_1 (not A0))) (let ((.def_2 (or .def_1 .def_0))) (let ((.def_3 (not .def_2))) (let ((.def_4 (not A6))) (let ((.def_5 (and A4 .def_4))) (let ((.def_6 (not .def_5))) (let ((.def_7 (or .def_6 .def_3))) (let ((.def_8 (not .def_7))) (let ((.def_9 (and A23 A16))) (let ((.def_10 (not .def_9))) (let ((.def_11 (not A2))) (let ((.def_12 (and .def_11 .def_4))) (let ((.def_13 (or .def_12 .def_10))) (let ((.def_14 (not .def_13))) (let ((.def_15 (and .def_14 .def_8))) (let ((.def_16 (not .def_15))) (let ((.def_17 (not A17))) (let ((.def_18 (or .def_17 A11))) (let ((.def_19 (not .def_18))) (let ((.def_20 (or A6 A22))) (let ((.def_21 (not .def_20))) (let ((.def_22 (or .def_21 .def_19))) (let ((.def_23 (or A3 A24))) (let ((.def_24 (not A22))) (let ((.def_25 (not A15))) (let ((.def_26 (and .def_25 .def_24))) (let ((.def_27 (and .def_26 .def_23))) (let ((.def_28 (or .def_27 .def_22))) (let ((.def_29 (= .def_28 .def_16))) (let ((.def_30 (not .def_29))) (let ((.def_31 (or .def_4 A19))) (let ((.def_32 (not .def_31))) (let ((.def_33 (and A24 A11))) (let ((.def_34 (or .def_33 .def_32))) (let ((.def_35 (not A14))) (let ((.def_36 (and .def_35 A5))) (let ((.def_37 (and A17 A14))) (let ((.def_38 (not .def_37))) (let ((.def_39 (or .def_38 .def_36))) (let ((.def_40 (not .def_39))) (let ((.def_41 (and .def_40 .def_34))) (let ((.def_42 (not .def_41))) (let ((.def_43 (not A13))) (let ((.def_44 (not A20))) (let ((.def_45 (or .def_44 .def_43))) (let ((.def_46 (not A9))) (let ((.def_47 (or A20 .def_46))) (let ((.def_48 (or .def_47 .def_45))) (let ((.def_49 (not A5))) (let ((.def_50 (and .def_49 A10))) (let ((.def_51 (or A3 A6))) (let ((.def_52 (or .def_51 .def_50))) (let ((.def_53 (and .def_52 .def_48))) (let ((.def_54 (not .def_53))) (let ((.def_55 (and .def_54 .def_42))) (let ((.def_56 (not .def_55))) (let ((.def_57 (and .def_56 .def_30))) (let ((.def_58 (not A10))) (let ((.def_59 (or .def_58 .def_17))) (let ((.def_60 (not A24))) (let ((.def_61 (or .def_60 .def_17))) (let ((.def_62 (not .def_61))) (let ((.def_63 (or .def_62 .def_59))) (let ((.def_64 (not .def_63))) (let ((.def_65 (= A6 .def_0))) (let ((.def_66 (or .def_0 A5))) (let ((.def_67 (and .def_66 .def_65))) (let ((.def_68 (not .def_67))) (let ((.def_69 (or .def_68 .def_64))) (let ((.def_70 (not A19))) (let ((.def_71 (or .def_70 A18))) (let ((.def_72 (= A19 A11))) (let ((.def_73 (or .def_72 .def_71))) (let ((.def_74 (or .def_44 A7))) (let ((.def_75 (and A0 .def_46))) (let ((.def_76 (not .def_75))) (let ((.def_77 (and .def_76 .def_74))) (let ((.def_78 (or .def_77 .def_73))) (let ((.def_79 (not .def_78))) (let ((.def_80 (and .def_79 .def_69))) (let ((.def_81 (and A5 A0))) (let ((.def_82 (not A21))) (let ((.def_83 (= .def_82 .def_25))) (let ((.def_84 (not .def_83))) (let ((.def_85 (or .def_84 .def_81))) (let ((.def_86 (and A13 .def_17))) (let ((.def_87 (not .def_86))) (let ((.def_88 (and A1 A5))) (let ((.def_89 (= .def_88 .def_87))) (let ((.def_90 (and .def_89 .def_85))) (let ((.def_91 (not .def_90))) (let ((.def_92 (not A23))) (let ((.def_93 (or .def_92 A21))) (let ((.def_94 (not .def_93))) (let ((.def_95 (not A3))) (let ((.def_96 (and .def_95 .def_92))) (let ((.def_97 (not .def_96))) (let ((.def_98 (and .def_97 .def_94))) (let ((.def_99 (not .def_98))) (let ((.def_100 (= .def_1 A0))) (let ((.def_101 (not A18))) (let ((.def_102 (or .def_95 .def_101))) (let ((.def_103 (not .def_102))) (let ((.def_104 (and .def_103 .def_100))) (let ((.def_105 (not .def_104))) (let ((.def_106 (and .def_105 .def_99))) (let ((.def_107 (or .def_106 .def_91))) (let ((.def_108 (or .def_107 .def_80))) (let ((.def_109 (or .def_108 .def_57))) .def_109)))))))))))))))))))))))))))))))))))))))))))))))))))))))))))))))))))))))))))))))))))))))))))))))))))))))))))))))
(check-sat)
